NAME: random-42-27439
TYPE: TSP
COMMENT: size=42 seed=27439
DIMENSION: 86
EDGE_WEIGHT_TYPE: EUC_2D
NODE_COORD_SECTION
+0 273 288
-0 273 288
+1 424 232
-1 186 773
+2 764 642
-2 426 391
+3 388 82
-3 791 319
+4 48 514
-4 320 70
+5 632 123
-5 731 13
+6 441 261
-6 80 568
+7 366 432
-7 817 903
+8 721 819
-8 131 5
+9 155 926
-9 310 891
+10 147 888
-10 164 367
+11 496 937
-11 935 24
+12 312 545
-12 382 291
+13 784 95
-13 773 614
+14 633 434
-14 961 750
+15 124 953
-15 609 345
+16 55 29
-16 509 729
+17 857 706
-17 336 279
+18 271 829
-18 590 625
+19 764 326
-19 510 640
+20 527 233
-20 686 109
+21 482 327
-21 48 468
+22 661 315
-22 26 962
+23 438 497
-23 435 310
+24 695 713
-24 599 710
+25 218 950
-25 9 721
+26 744 967
-26 704 101
+27 458 837
-27 893 205
+28 656 145
-28 950 534
+29 537 622
-29 282 902
+30 228 25
-30 712 63
+31 566 980
-31 709 116
+32 573 654
-32 852 758
+33 123 363
-33 571 633
+34 441 512
-34 752 492
+35 433 704
-35 762 968
+36 364 58
-36 483 581
+37 119 246
-37 104 985
+38 379 834
-38 233 795
+39 899 397
-39 416 669
+40 397 550
-40 653 358
+41 116 839
-41 386 804
+42 968 500
-42 661 219
PRECEDENCE_SECTION
+0 -0
+1 -1
+2 -2
+3 -3
+4 -4
+5 -5
+6 -6
+7 -7
+8 -8
+9 -9
+10 -10
+11 -11
+12 -12
+13 -13
+14 -14
+15 -15
+16 -16
+17 -17
+18 -18
+19 -19
+20 -20
+21 -21
+22 -22
+23 -23
+24 -24
+25 -25
+26 -26
+27 -27
+28 -28
+29 -29
+30 -30
+31 -31
+32 -32
+33 -33
+34 -34
+35 -35
+36 -36
+37 -37
+38 -38
+39 -39
+40 -40
+41 -41
+42 -42
EOF
